#-----------------------------
#--- Model parameters
#-----------------------------

variable natom	equal 4000  #--- system size 
variable Ntype	equal 5		#--- number of atom types
variable a      equal 3.58   #--- lattice constant
variable Dt		equal 0.001 #--- discretization time
variable Tinit 	equal 300.0  #--- initial temperature
variable Tfinal equal 3000.0 #--- final temperature
variable tDampTemp 	equal 10*${Dt}   #--- thermostat equilibration time scale
variable Trate 	equal 50.0   #--- melting rate
variable Pinit	equal 1.0132  #--- number of time steps
variable Nfreq	equal 100  #--- number of time steps
variable tEquilibrate	equal 1000*${tDampTemp}  #--- equilibration time
variable tDampPress 	equal ${tDampTemp}   #--- barostat equilibration time scale

#-----------------------------
#--- Compute Variables
#-----------------------------
variable	nRunEquilibrate	equal	${tEquilibrate}/${Dt}
variable	tMelting		equal	(${Tfinal}-${Tinit})/${Trate}
variable	nRunMelting		equal	${tMelting}/${Dt}
variable	volume			equal	${natom}*${a}^3.0/4.0 #--- natom * vol. of the voronoi cell
variable 	lx				equal	${volume}^(1.0/3.0) 

#-----------------------------
#--- system details
#-----------------------------
units		metal
atom_style	atomic
boundary	p p p

#-----------------------------
#--- define box & lattice
#-----------------------------
region mybox block 0.0 ${lx} 0.0 ${lx} 0.0 ${lx}
lattice fcc ${a} 
create_box ${Ntype} mybox  

#-----------------------------
#--- assign particle types
#-----------------------------
#create_atoms 4  box ratio 0.5 7467  #--- seed
#create_atoms 2  box ratio 0.5 2465 
#create_atoms 3 box ratio 0.2 524658
#create_atoms 4 box ratio 0.2 4658
#create_atoms 5 box ratio 0.2 9224658
#change_box all triclinic
#--- 2nd method
create_atoms    ${Ntype} box
group fe_group type ${Ntype}
set group fe_group type/fraction 4 0.5  940248
group ni_group type ${Ntype}
set group ni_group type 2

#neigh_modify delay 0
#neighbor    0.3 bin 
#neigh_modify    delay 5

#-----------------------------
#--- interactions
#-----------------------------
pair_style meam/c
pair_coeff * * ${MEAM_library_DIR}/library_CoNiCrFeMn.meam Co Ni Cr Fe Mn ${MEAM_library_DIR}/parameters.meam Co Ni Cr Fe Mn

#--- print temperature
variable varPress equal press
variable varTemp equal temp
variable varStep equal step
fix extra all print ${Nfreq} "${varStep} ${varTemp} " file temperature.txt

#--- thermo
thermo	${Nfreq}
thermo_style	custom step ke pe press temp 

#-----------------------------
#--- set dynamics
#-----------------------------
timestep ${Dt}

#-----------------------------
#--- compute & dump variables
#-----------------------------
dump      	1 all custom ${Nfreq} xyz.dump id type x y z 


#-----------------------------
#--- melt & quench
#-----------------------------
#--- initial equilibration
fix		fix_initEq	all npt temp ${Tinit} ${Tinit} ${tDampTemp} iso ${Pinit} ${Pinit} ${tDampPress}  
run 	${nRunEquilibrate}

#--- melting
unfix	fix_initEq
fix		fix_melt	all npt temp ${Tinit} ${Tfinal} ${tDampTemp} iso ${Pinit} ${Pinit} ${tDampPress}  
run		${nRunMelting}

#--- final equilibration
unfix	fix_melt
fix		fix_finalEq	all npt temp ${Tfinal} ${Tfinal} ${tDampTemp} iso ${Pinit} ${Pinit} ${tDampPress}  
run 	${nRunEquilibrate}
